100 8
326 856
413 572
162 225
303 680
933 469
141 304
696 238
213 824
600 846
114 891
430 447
619 933
313 830
448 236
507 139
424 634
825 204
797 233
552 956
317 696
520 539
658 925
140 821
496 691
149 283
546 883
518 787
804 405
140 805
749 111
520 244
244 759
494 547
430 761
900 849
477 127
585 243
548 594
435 668
806 374
907 483
38 910
602 417
231 246
379 606
505 528
193 257
340 884
562 799
898 665
803 421
221 272
238 844
210 615
645 842
598 220
87 142
352 660
281 544
189 948
113 192
189 829
822 211
881 434
463 603
443 332
920 480
167 953
611 144
398 268
412 198
215 678
375 617
666 264
512 761
718 122
866 447
830 696
482 678
32 859
222 198
975 697
373 649
529 582
129 701
511 465
462 439
235 598
740 272
447 289
465 763
35 143
124 178
827 105
318 674
234 262
436 613
582 816
906 835
215 703
